p cnf 701 2351
1 0
-2 0
-3 0
-4 0
-5 0
-6 0
-7 0
-8 0
-9 0
-10 0
-11 0
-12 0
-13 0
-14 0
-15 0
-16 0
-17 0
-18 0
-19 0
-20 0
-21 0
-22 0
-23 0
24 25 26 27 0
-24 -25 0
-24 -26 0
-24 -27 0
-25 -26 0
-25 -27 0
-26 -27 0
28 -1 -29 0
1 -28 -29 0
-28 -1 29 0
1 28 29 0
-24 -29 0
1 -28 -30 0
28 -1 -30 0
30 -1 -28 0
30 1 28 0
-25 30 0
-1 31 0
-28 31 0
1 28 -31 0
1 -31 -32 0
-1 31 -32 0
-1 -31 32 0
1 31 32 0
-26 32 0
28 33 0
1 33 0
-28 -1 -33 0
-1 33 -34 0
1 -33 -34 0
34 -33 -1 0
1 33 34 0
-27 -34 0
35 -2 -36 0
2 -35 -36 0
-35 -2 36 0
2 35 36 0
-24 -36 0
2 -37 -38 0
37 -2 -38 0
38 -2 -37 0
38 2 37 0
-25 38 0
-35 39 0
-37 39 0
-40 39 0
35 37 40 -39 0
2 -39 -41 0
-2 39 -41 0
-2 -39 41 0
2 39 41 0
-26 41 0
35 42 0
37 42 0
40 42 0
-35 -37 -40 -42 0
-2 42 -43 0
2 -42 -43 0
43 -42 -2 0
2 42 43 0
-27 -43 0
37 -44 -45 0
44 -37 -45 0
-37 -44 45 0
37 44 45 0
-24 -45 0
44 -40 -46 0
40 -44 -46 0
46 -44 -40 0
46 44 40 0
-25 46 0
-37 47 0
-40 47 0
37 40 -47 0
44 -47 -48 0
-44 47 -48 0
-44 -47 48 0
44 47 48 0
-26 48 0
37 49 0
40 49 0
-37 -40 -49 0
-44 49 -50 0
44 -49 -50 0
50 -49 -44 0
44 49 50 0
-27 -50 0
40 -3 -51 0
3 -40 -51 0
-40 -3 51 0
40 3 51 0
-24 -51 0
-37 3 -52 0
37 -3 -52 0
52 -3 -37 0
52 3 37 0
-25 52 0
-40 53 0
-44 53 0
40 44 -53 0
3 -53 -54 0
-3 53 -54 0
-3 -53 54 0
3 53 54 0
-26 54 0
40 55 0
44 55 0
-40 -44 -55 0
-3 55 -56 0
3 -55 -56 0
56 -55 -3 0
3 55 56 0
-27 -56 0
57 -4 -58 0
4 -57 -58 0
-57 -4 58 0
4 57 58 0
-24 -58 0
4 -59 -60 0
59 -4 -60 0
60 -4 -59 0
60 4 59 0
-25 60 0
-35 61 0
-37 61 0
-40 61 0
-57 61 0
-59 61 0
35 37 40 57 59 -61 0
4 -61 -62 0
-4 61 -62 0
-4 -61 62 0
4 61 62 0
-26 62 0
35 63 0
37 63 0
40 63 0
57 63 0
59 63 0
-64 0
-4 63 -65 0
4 -63 -65 0
65 -63 -4 0
4 63 65 0
-27 -65 0
59 -66 -67 0
66 -59 -67 0
-59 -66 67 0
59 66 67 0
-24 -67 0
-35 66 -68 0
35 -66 -68 0
68 -66 -35 0
68 66 35 0
-25 68 0
-35 69 0
-37 69 0
-40 69 0
-59 69 0
35 37 40 59 -69 0
66 -69 -70 0
-66 69 -70 0
-66 -69 70 0
66 69 70 0
-26 70 0
35 71 0
37 71 0
40 71 0
59 71 0
-72 0
-66 71 -73 0
66 -71 -73 0
73 -71 -66 0
66 71 73 0
-27 -73 0
74 -5 -75 0
5 -74 -75 0
-74 -5 75 0
5 74 75 0
-24 -75 0
5 -76 -77 0
76 -5 -77 0
77 -5 -76 0
77 5 76 0
-25 77 0
-74 78 0
-76 78 0
-79 78 0
-80 78 0
-81 78 0
-82 78 0
74 76 79 80 81 82 -78 0
5 -78 -83 0
-5 78 -83 0
-5 -78 83 0
5 78 83 0
-26 83 0
74 84 0
76 84 0
79 84 0
80 84 0
81 84 0
82 84 0
-85 0
-5 84 -86 0
5 -84 -86 0
86 -84 -5 0
5 84 86 0
-27 -86 0
76 -87 -88 0
87 -76 -88 0
-76 -87 88 0
76 87 88 0
-24 -88 0
87 -79 -89 0
79 -87 -89 0
89 -87 -79 0
89 87 79 0
-25 89 0
-76 90 0
-79 90 0
-80 90 0
-81 90 0
-82 90 0
76 79 80 81 82 -90 0
87 -90 -91 0
-87 90 -91 0
-87 -90 91 0
87 90 91 0
-26 91 0
76 92 0
79 92 0
80 92 0
81 92 0
82 92 0
-93 0
-87 92 -94 0
87 -92 -94 0
94 -92 -87 0
87 92 94 0
-27 -94 0
79 -95 -96 0
95 -79 -96 0
-79 -95 96 0
79 95 96 0
-24 -96 0
95 -80 -97 0
80 -95 -97 0
97 -95 -80 0
97 95 80 0
-25 97 0
-79 98 0
-80 98 0
-81 98 0
-82 98 0
79 80 81 82 -98 0
95 -98 -99 0
-95 98 -99 0
-95 -98 99 0
95 98 99 0
-26 99 0
79 100 0
80 100 0
81 100 0
82 100 0
-101 0
-95 100 -102 0
95 -100 -102 0
102 -100 -95 0
95 100 102 0
-27 -102 0
80 -103 -104 0
103 -80 -104 0
-80 -103 104 0
80 103 104 0
-24 -104 0
103 -81 -105 0
81 -103 -105 0
105 -103 -81 0
105 103 81 0
-25 105 0
103 -98 -106 0
-103 98 -106 0
-103 -98 106 0
103 98 106 0
-26 106 0
-103 100 -107 0
103 -100 -107 0
107 -100 -103 0
103 100 107 0
-27 -107 0
81 -108 -109 0
108 -81 -109 0
-81 -108 109 0
81 108 109 0
-24 -109 0
108 -82 -110 0
82 -108 -110 0
110 -108 -82 0
110 108 82 0
-25 110 0
-81 111 0
-82 111 0
-79 111 0
-80 111 0
81 82 79 80 -111 0
108 -111 -112 0
-108 111 -112 0
-108 -111 112 0
108 111 112 0
-26 112 0
81 113 0
82 113 0
79 113 0
80 113 0
-114 0
-108 113 -115 0
108 -113 -115 0
115 -113 -108 0
108 113 115 0
-27 -115 0
82 -6 -116 0
6 -82 -116 0
-82 -6 116 0
82 6 116 0
-24 -116 0
-79 6 -117 0
79 -6 -117 0
117 -6 -79 0
117 6 79 0
-25 117 0
-82 118 0
-95 118 0
82 95 -118 0
6 -118 -119 0
-6 118 -119 0
-6 -118 119 0
6 118 119 0
-26 119 0
82 120 0
95 120 0
-82 -95 -120 0
-6 120 -121 0
6 -120 -121 0
121 -120 -6 0
6 120 121 0
-27 -121 0
122 -7 -123 0
7 -122 -123 0
-122 -7 123 0
7 122 123 0
-24 -123 0
7 -124 -125 0
124 -7 -125 0
125 -7 -124 0
125 7 124 0
-25 125 0
-122 126 0
-124 126 0
-127 126 0
-128 126 0
-129 126 0
-130 126 0
131 0
7 -126 -132 0
-7 126 -132 0
-7 -126 132 0
7 126 132 0
-26 132 0
122 133 0
124 133 0
127 133 0
128 133 0
129 133 0
130 133 0
-134 0
-7 133 -135 0
7 -133 -135 0
135 -133 -7 0
7 133 135 0
-27 -135 0
124 -136 -137 0
136 -124 -137 0
-124 -136 137 0
124 136 137 0
-24 -137 0
136 -127 -138 0
127 -136 -138 0
138 -136 -127 0
138 136 127 0
-25 138 0
-124 139 0
-127 139 0
-128 139 0
-129 139 0
-130 139 0
124 127 128 129 130 -139 0
136 -139 -140 0
-136 139 -140 0
-136 -139 140 0
136 139 140 0
-26 140 0
124 141 0
127 141 0
128 141 0
129 141 0
130 141 0
-142 0
-136 141 -143 0
136 -141 -143 0
143 -141 -136 0
136 141 143 0
-27 -143 0
127 -144 -145 0
144 -127 -145 0
-127 -144 145 0
127 144 145 0
-24 -145 0
144 -128 -146 0
128 -144 -146 0
146 -144 -128 0
146 144 128 0
-25 146 0
-127 147 0
-128 147 0
-129 147 0
-130 147 0
127 128 129 130 -147 0
144 -147 -148 0
-144 147 -148 0
-144 -147 148 0
144 147 148 0
-26 148 0
127 149 0
128 149 0
129 149 0
130 149 0
-150 0
-144 149 -151 0
144 -149 -151 0
151 -149 -144 0
144 149 151 0
-27 -151 0
128 -152 -153 0
152 -128 -153 0
-128 -152 153 0
128 152 153 0
-24 -153 0
152 -129 -154 0
129 -152 -154 0
154 -152 -129 0
154 152 129 0
-25 154 0
152 -147 -155 0
-152 147 -155 0
-152 -147 155 0
152 147 155 0
-26 155 0
-152 149 -156 0
152 -149 -156 0
156 -149 -152 0
152 149 156 0
-27 -156 0
129 -157 -158 0
157 -129 -158 0
-129 -157 158 0
129 157 158 0
-24 -158 0
157 -130 -159 0
130 -157 -159 0
159 -157 -130 0
159 157 130 0
-25 159 0
157 -147 -160 0
-157 147 -160 0
-157 -147 160 0
157 147 160 0
-26 160 0
-157 149 -161 0
157 -149 -161 0
161 -149 -157 0
157 149 161 0
-27 -161 0
130 -162 -163 0
162 -130 -163 0
-130 -162 163 0
130 162 163 0
-24 -163 0
-127 162 -164 0
127 -162 -164 0
164 -162 -127 0
164 162 127 0
-25 164 0
-130 165 0
-144 165 0
130 144 -165 0
162 -165 -166 0
-162 165 -166 0
-162 -165 166 0
162 165 166 0
-26 166 0
130 167 0
144 167 0
-130 -144 -167 0
-162 167 -168 0
162 -167 -168 0
168 -167 -162 0
162 167 168 0
-27 -168 0
169 -8 -170 0
8 -169 -170 0
-169 -8 170 0
8 169 170 0
-24 -170 0
8 -171 -172 0
171 -8 -172 0
172 -8 -171 0
172 8 171 0
-25 172 0
-28 173 0
-169 173 0
-171 173 0
-174 173 0
28 169 171 174 -173 0
8 -173 -175 0
-8 173 -175 0
-8 -173 175 0
8 173 175 0
-26 175 0
28 176 0
169 176 0
171 176 0
174 176 0
-177 0
-8 176 -178 0
8 -176 -178 0
178 -176 -8 0
8 176 178 0
-27 -178 0
171 -9 -179 0
9 -171 -179 0
-171 -9 179 0
171 9 179 0
-24 -179 0
9 -174 -180 0
174 -9 -180 0
180 -9 -174 0
180 9 174 0
-25 180 0
-28 181 0
-171 181 0
-174 181 0
28 171 174 -181 0
9 -181 -182 0
-9 181 -182 0
-9 -181 182 0
9 181 182 0
-26 182 0
28 183 0
171 183 0
174 183 0
-28 -171 -174 -183 0
-9 183 -184 0
9 -183 -184 0
184 -183 -9 0
9 183 184 0
-27 -184 0
174 -185 -186 0
185 -174 -186 0
-174 -185 186 0
174 185 186 0
-24 -186 0
-28 185 -187 0
28 -185 -187 0
187 -185 -28 0
187 185 28 0
-25 187 0
-28 188 0
-174 188 0
28 174 -188 0
185 -188 -189 0
-185 188 -189 0
-185 -188 189 0
185 188 189 0
-26 189 0
28 190 0
174 190 0
-28 -174 -190 0
-185 190 -191 0
185 -190 -191 0
191 -190 -185 0
185 190 191 0
-27 -191 0
192 -10 -193 0
10 -192 -193 0
-192 -10 193 0
10 192 193 0
-24 -193 0
10 -194 -195 0
194 -10 -195 0
195 -10 -194 0
195 10 194 0
-25 195 0
-192 196 0
-194 196 0
-197 196 0
-198 196 0
-199 196 0
-200 196 0
201 0
10 -196 -202 0
-10 196 -202 0
-10 -196 202 0
10 196 202 0
-26 202 0
192 203 0
194 203 0
197 203 0
198 203 0
199 203 0
200 203 0
-204 0
-10 203 -205 0
10 -203 -205 0
205 -203 -10 0
10 203 205 0
-27 -205 0
194 -206 -207 0
206 -194 -207 0
-194 -206 207 0
194 206 207 0
-24 -207 0
206 -197 -208 0
197 -206 -208 0
208 -206 -197 0
208 206 197 0
-25 208 0
-194 209 0
-197 209 0
-198 209 0
-199 209 0
-200 209 0
194 197 198 199 200 -209 0
206 -209 -210 0
-206 209 -210 0
-206 -209 210 0
206 209 210 0
-26 210 0
194 211 0
197 211 0
198 211 0
199 211 0
200 211 0
-212 0
-206 211 -213 0
206 -211 -213 0
213 -211 -206 0
206 211 213 0
-27 -213 0
197 -214 -215 0
214 -197 -215 0
-197 -214 215 0
197 214 215 0
-24 -215 0
214 -198 -216 0
198 -214 -216 0
216 -214 -198 0
216 214 198 0
-25 216 0
-197 217 0
-198 217 0
-199 217 0
-200 217 0
197 198 199 200 -217 0
214 -217 -218 0
-214 217 -218 0
-214 -217 218 0
214 217 218 0
-26 218 0
197 219 0
198 219 0
199 219 0
200 219 0
-220 0
-214 219 -221 0
214 -219 -221 0
221 -219 -214 0
214 219 221 0
-27 -221 0
198 -222 -223 0
222 -198 -223 0
-198 -222 223 0
198 222 223 0
-24 -223 0
222 -199 -224 0
199 -222 -224 0
224 -222 -199 0
224 222 199 0
-25 224 0
-198 225 0
-199 225 0
-200 225 0
198 199 200 -225 0
222 -225 -226 0
-222 225 -226 0
-222 -225 226 0
222 225 226 0
-26 226 0
198 227 0
199 227 0
200 227 0
-198 -199 -200 -227 0
-222 227 -228 0
222 -227 -228 0
228 -227 -222 0
222 227 228 0
-27 -228 0
199 -229 -230 0
229 -199 -230 0
-199 -229 230 0
199 229 230 0
-24 -230 0
229 -200 -231 0
200 -229 -231 0
231 -229 -200 0
231 229 200 0
-25 231 0
229 -225 -232 0
-229 225 -232 0
-229 -225 232 0
229 225 232 0
-26 232 0
-229 227 -233 0
229 -227 -233 0
233 -227 -229 0
229 227 233 0
-27 -233 0
200 -234 -235 0
234 -200 -235 0
-200 -234 235 0
200 234 235 0
-24 -235 0
-198 234 -236 0
198 -234 -236 0
236 -234 -198 0
236 234 198 0
-25 236 0
-200 237 0
-222 237 0
200 222 -237 0
234 -237 -238 0
-234 237 -238 0
-234 -237 238 0
234 237 238 0
-26 238 0
200 239 0
222 239 0
-200 -222 -239 0
-234 239 -240 0
234 -239 -240 0
240 -239 -234 0
234 239 240 0
-27 -240 0
241 -11 -242 0
11 -241 -242 0
-241 -11 242 0
11 241 242 0
-24 -242 0
11 -243 -244 0
243 -11 -244 0
244 -11 -243 0
244 11 243 0
-25 244 0
-28 245 0
-171 245 0
-174 245 0
-241 245 0
-243 245 0
28 171 174 241 243 -245 0
11 -245 -246 0
-11 245 -246 0
-11 -245 246 0
11 245 246 0
-26 246 0
28 247 0
171 247 0
174 247 0
241 247 0
243 247 0
-248 0
-11 247 -249 0
11 -247 -249 0
249 -247 -11 0
11 247 249 0
-27 -249 0
243 -250 -251 0
250 -243 -251 0
-243 -250 251 0
243 250 251 0
-24 -251 0
-171 250 -252 0
171 -250 -252 0
252 -250 -171 0
252 250 171 0
-25 252 0
-28 253 0
-171 253 0
-174 253 0
-243 253 0
28 171 174 243 -253 0
250 -253 -254 0
-250 253 -254 0
-250 -253 254 0
250 253 254 0
-26 254 0
28 255 0
171 255 0
174 255 0
243 255 0
-256 0
-250 255 -257 0
250 -255 -257 0
257 -255 -250 0
250 255 257 0
-27 -257 0
258 -12 -259 0
12 -258 -259 0
-258 -12 259 0
12 258 259 0
-24 -259 0
12 -260 -261 0
260 -12 -261 0
261 -12 -260 0
261 12 260 0
-25 261 0
-197 262 0
-198 262 0
-199 262 0
-200 262 0
-258 262 0
-260 262 0
263 0
12 -262 -264 0
-12 262 -264 0
-12 -262 264 0
12 262 264 0
-26 264 0
197 265 0
198 265 0
199 265 0
200 265 0
258 265 0
260 265 0
-266 0
-12 265 -267 0
12 -265 -267 0
267 -265 -12 0
12 265 267 0
-27 -267 0
260 -268 -269 0
268 -260 -269 0
-260 -268 269 0
260 268 269 0
-24 -269 0
-197 268 -270 0
197 -268 -270 0
270 -268 -197 0
270 268 197 0
-25 270 0
-197 271 0
-198 271 0
-199 271 0
-200 271 0
-260 271 0
197 198 199 200 260 -271 0
268 -271 -272 0
-268 271 -272 0
-268 -271 272 0
268 271 272 0
-26 272 0
197 273 0
198 273 0
199 273 0
200 273 0
260 273 0
-274 0
-268 273 -275 0
268 -273 -275 0
275 -273 -268 0
268 273 275 0
-27 -275 0
276 -13 -277 0
13 -276 -277 0
-276 -13 277 0
13 276 277 0
-24 -277 0
13 -278 -279 0
278 -13 -279 0
279 -13 -278 0
279 13 278 0
-25 279 0
-127 280 0
-128 280 0
-129 280 0
-130 280 0
-276 280 0
-278 280 0
-281 280 0
-282 280 0
283 0
13 -280 -284 0
-13 280 -284 0
-13 -280 284 0
13 280 284 0
-26 284 0
127 285 0
128 285 0
129 285 0
130 285 0
276 285 0
278 285 0
281 285 0
282 285 0
-286 0
-13 285 -287 0
13 -285 -287 0
287 -285 -13 0
13 285 287 0
-27 -287 0
278 -288 -289 0
288 -278 -289 0
-278 -288 289 0
278 288 289 0
-24 -289 0
288 -281 -290 0
281 -288 -290 0
290 -288 -281 0
290 288 281 0
-25 290 0
-127 291 0
-128 291 0
-129 291 0
-130 291 0
-278 291 0
-281 291 0
-282 291 0
292 0
288 -291 -293 0
-288 291 -293 0
-288 -291 293 0
288 291 293 0
-26 293 0
127 294 0
128 294 0
129 294 0
130 294 0
278 294 0
281 294 0
282 294 0
-295 0
-288 294 -296 0
288 -294 -296 0
296 -294 -288 0
288 294 296 0
-27 -296 0
281 -297 -298 0
297 -281 -298 0
-281 -297 298 0
281 297 298 0
-24 -298 0
297 -282 -299 0
282 -297 -299 0
299 -297 -282 0
299 297 282 0
-25 299 0
-127 300 0
-128 300 0
-129 300 0
-130 300 0
-281 300 0
-282 300 0
301 0
297 -300 -302 0
-297 300 -302 0
-297 -300 302 0
297 300 302 0
-26 302 0
127 303 0
128 303 0
129 303 0
130 303 0
281 303 0
282 303 0
-304 0
-297 303 -305 0
297 -303 -305 0
305 -303 -297 0
297 303 305 0
-27 -305 0
282 -306 -307 0
306 -282 -307 0
-282 -306 307 0
282 306 307 0
-24 -307 0
-128 306 -308 0
128 -306 -308 0
308 -306 -128 0
308 306 128 0
-25 308 0
-127 309 0
-128 309 0
-129 309 0
-130 309 0
-282 309 0
127 128 129 130 282 -309 0
306 -309 -310 0
-306 309 -310 0
-306 -309 310 0
306 309 310 0
-26 310 0
127 311 0
128 311 0
129 311 0
130 311 0
282 311 0
-312 0
-306 311 -313 0
306 -311 -313 0
313 -311 -306 0
306 311 313 0
-27 -313 0
314 -14 -315 0
14 -314 -315 0
-314 -14 315 0
14 314 315 0
-24 -315 0
14 -316 -317 0
316 -14 -317 0
317 -14 -316 0
317 14 316 0
-25 317 0
-37 318 0
-40 318 0
-314 318 0
-316 318 0
-319 318 0
37 40 314 316 319 -318 0
14 -318 -320 0
-14 318 -320 0
-14 -318 320 0
14 318 320 0
-26 320 0
37 321 0
40 321 0
314 321 0
316 321 0
319 321 0
-322 0
-14 321 -323 0
14 -321 -323 0
323 -321 -14 0
14 321 323 0
-27 -323 0
316 -324 -325 0
324 -316 -325 0
-316 -324 325 0
316 324 325 0
-24 -325 0
324 -319 -326 0
319 -324 -326 0
326 -324 -319 0
326 324 319 0
-25 326 0
-37 327 0
-40 327 0
-316 327 0
-319 327 0
37 40 316 319 -327 0
324 -327 -328 0
-324 327 -328 0
-324 -327 328 0
324 327 328 0
-26 328 0
37 329 0
40 329 0
316 329 0
319 329 0
-330 0
-324 329 -331 0
324 -329 -331 0
331 -329 -324 0
324 329 331 0
-27 -331 0
319 -332 -333 0
332 -319 -333 0
-319 -332 333 0
319 332 333 0
-24 -333 0
-40 332 -334 0
40 -332 -334 0
334 -332 -40 0
334 332 40 0
-25 334 0
-37 335 0
-40 335 0
-319 335 0
37 40 319 -335 0
332 -335 -336 0
-332 335 -336 0
-332 -335 336 0
332 335 336 0
-26 336 0
37 337 0
40 337 0
319 337 0
-37 -40 -319 -337 0
-332 337 -338 0
332 -337 -338 0
338 -337 -332 0
332 337 338 0
-27 -338 0
339 -15 -340 0
15 -339 -340 0
-339 -15 340 0
15 339 340 0
-24 -340 0
15 -341 -342 0
341 -15 -342 0
342 -15 -341 0
342 15 341 0
-25 342 0
-198 343 0
-199 343 0
-200 343 0
-339 343 0
-341 343 0
198 199 200 339 341 -343 0
15 -343 -344 0
-15 343 -344 0
-15 -343 344 0
15 343 344 0
-26 344 0
198 345 0
199 345 0
200 345 0
339 345 0
341 345 0
-346 0
-15 345 -347 0
15 -345 -347 0
347 -345 -15 0
15 345 347 0
-27 -347 0
341 -348 -349 0
348 -341 -349 0
-341 -348 349 0
341 348 349 0
-24 -349 0
-200 348 -350 0
200 -348 -350 0
350 -348 -200 0
350 348 200 0
-25 350 0
-198 351 0
-199 351 0
-200 351 0
-341 351 0
198 199 200 341 -351 0
348 -351 -352 0
-348 351 -352 0
-348 -351 352 0
348 351 352 0
-26 352 0
198 353 0
199 353 0
200 353 0
341 353 0
-354 0
-348 353 -355 0
348 -353 -355 0
355 -353 -348 0
348 353 355 0
-27 -355 0
356 -16 -357 0
16 -356 -357 0
-356 -16 357 0
16 356 357 0
-24 -357 0
-59 16 -358 0
59 -16 -358 0
358 -16 -59 0
358 16 59 0
-25 358 0
-35 359 0
-37 359 0
-40 359 0
-59 359 0
-356 359 0
35 37 40 59 356 -359 0
16 -359 -360 0
-16 359 -360 0
-16 -359 360 0
16 359 360 0
-26 360 0
35 361 0
37 361 0
40 361 0
59 361 0
356 361 0
-362 0
-16 361 -363 0
16 -361 -363 0
363 -361 -16 0
16 361 363 0
-27 -363 0
364 -17 -365 0
17 -364 -365 0
-364 -17 365 0
17 364 365 0
-24 -365 0
17 -366 -367 0
366 -17 -367 0
367 -17 -366 0
367 17 366 0
-25 367 0
-364 368 0
-366 368 0
-369 368 0
-370 368 0
-371 368 0
-372 368 0
-373 368 0
374 0
17 -368 -375 0
-17 368 -375 0
-17 -368 375 0
17 368 375 0
-26 375 0
364 376 0
366 376 0
369 376 0
370 376 0
371 376 0
372 376 0
373 376 0
-377 0
-17 376 -378 0
17 -376 -378 0
378 -376 -17 0
17 376 378 0
-27 -378 0
366 -379 -380 0
379 -366 -380 0
-366 -379 380 0
366 379 380 0
-24 -380 0
379 -369 -381 0
369 -379 -381 0
381 -379 -369 0
381 379 369 0
-25 381 0
-366 382 0
-369 382 0
-370 382 0
-371 382 0
-372 382 0
-373 382 0
383 0
379 -382 -384 0
-379 382 -384 0
-379 -382 384 0
379 382 384 0
-26 384 0
366 385 0
369 385 0
370 385 0
371 385 0
372 385 0
373 385 0
-386 0
-379 385 -387 0
379 -385 -387 0
387 -385 -379 0
379 385 387 0
-27 -387 0
369 -388 -389 0
388 -369 -389 0
-369 -388 389 0
369 388 389 0
-24 -389 0
388 -370 -390 0
370 -388 -390 0
390 -388 -370 0
390 388 370 0
-25 390 0
-369 391 0
-370 391 0
-371 391 0
-372 391 0
-373 391 0
369 370 371 372 373 -391 0
388 -391 -392 0
-388 391 -392 0
-388 -391 392 0
388 391 392 0
-26 392 0
369 393 0
370 393 0
371 393 0
372 393 0
373 393 0
-394 0
-388 393 -395 0
388 -393 -395 0
395 -393 -388 0
388 393 395 0
-27 -395 0
370 -396 -397 0
396 -370 -397 0
-370 -396 397 0
370 396 397 0
-24 -397 0
396 -371 -398 0
371 -396 -398 0
398 -396 -371 0
398 396 371 0
-25 398 0
-370 399 0
-371 399 0
-372 399 0
-373 399 0
370 371 372 373 -399 0
396 -399 -400 0
-396 399 -400 0
-396 -399 400 0
396 399 400 0
-26 400 0
370 401 0
371 401 0
372 401 0
373 401 0
-402 0
-396 401 -403 0
396 -401 -403 0
403 -401 -396 0
396 401 403 0
-27 -403 0
371 -404 -405 0
404 -371 -405 0
-371 -404 405 0
371 404 405 0
-24 -405 0
404 -372 -406 0
372 -404 -406 0
406 -404 -372 0
406 404 372 0
-25 406 0
-371 407 0
-372 407 0
-373 407 0
371 372 373 -407 0
404 -407 -408 0
-404 407 -408 0
-404 -407 408 0
404 407 408 0
-26 408 0
371 409 0
372 409 0
373 409 0
-371 -372 -373 -409 0
-404 409 -410 0
404 -409 -410 0
410 -409 -404 0
404 409 410 0
-27 -410 0
372 -411 -412 0
411 -372 -412 0
-372 -411 412 0
372 411 412 0
-24 -412 0
411 -373 -413 0
373 -411 -413 0
413 -411 -373 0
413 411 373 0
-25 413 0
411 -407 -414 0
-411 407 -414 0
-411 -407 414 0
411 407 414 0
-26 414 0
-411 409 -415 0
411 -409 -415 0
415 -409 -411 0
411 409 415 0
-27 -415 0
373 -416 -417 0
416 -373 -417 0
-373 -416 417 0
373 416 417 0
-24 -417 0
-371 416 -418 0
371 -416 -418 0
418 -416 -371 0
418 416 371 0
-25 418 0
-373 419 0
-404 419 0
373 404 -419 0
416 -419 -420 0
-416 419 -420 0
-416 -419 420 0
416 419 420 0
-26 420 0
373 421 0
404 421 0
-373 -404 -421 0
-416 421 -422 0
416 -421 -422 0
422 -421 -416 0
416 421 422 0
-27 -422 0
423 -18 -424 0
18 -423 -424 0
-423 -18 424 0
18 423 424 0
-24 -424 0
18 -425 -426 0
425 -18 -426 0
426 -18 -425 0
426 18 425 0
-25 426 0
-79 427 0
-80 427 0
-81 427 0
-82 427 0
-423 427 0
-425 427 0
-428 427 0
-429 427 0
430 0
18 -427 -431 0
-18 427 -431 0
-18 -427 431 0
18 427 431 0
-26 431 0
79 432 0
80 432 0
81 432 0
82 432 0
423 432 0
425 432 0
428 432 0
429 432 0
-433 0
-18 432 -434 0
18 -432 -434 0
434 -432 -18 0
18 432 434 0
-27 -434 0
425 -435 -436 0
435 -425 -436 0
-425 -435 436 0
425 435 436 0
-24 -436 0
435 -428 -437 0
428 -435 -437 0
437 -435 -428 0
437 435 428 0
-25 437 0
-79 438 0
-80 438 0
-81 438 0
-82 438 0
-425 438 0
-428 438 0
-429 438 0
439 0
435 -438 -440 0
-435 438 -440 0
-435 -438 440 0
435 438 440 0
-26 440 0
79 441 0
80 441 0
81 441 0
82 441 0
425 441 0
428 441 0
429 441 0
-442 0
-435 441 -443 0
435 -441 -443 0
443 -441 -435 0
435 441 443 0
-27 -443 0
428 -444 -445 0
444 -428 -445 0
-428 -444 445 0
428 444 445 0
-24 -445 0
444 -429 -446 0
429 -444 -446 0
446 -444 -429 0
446 444 429 0
-25 446 0
-79 447 0
-80 447 0
-81 447 0
-82 447 0
-428 447 0
-429 447 0
79 80 81 82 428 429 -447 0
444 -447 -448 0
-444 447 -448 0
-444 -447 448 0
444 447 448 0
-26 448 0
79 449 0
80 449 0
81 449 0
82 449 0
428 449 0
429 449 0
-450 0
-444 449 -451 0
444 -449 -451 0
451 -449 -444 0
444 449 451 0
-27 -451 0
429 -452 -453 0
452 -429 -453 0
-429 -452 453 0
429 452 453 0
-24 -453 0
-82 452 -454 0
82 -452 -454 0
454 -452 -82 0
454 452 82 0
-25 454 0
-79 455 0
-80 455 0
-81 455 0
-82 455 0
-429 455 0
79 80 81 82 429 -455 0
452 -455 -456 0
-452 455 -456 0
-452 -455 456 0
452 455 456 0
-26 456 0
79 457 0
80 457 0
81 457 0
82 457 0
429 457 0
-458 0
-452 457 -459 0
452 -457 -459 0
459 -457 -452 0
452 457 459 0
-27 -459 0
460 -19 -461 0
19 -460 -461 0
-460 -19 461 0
19 460 461 0
-24 -461 0
19 -462 -463 0
462 -19 -463 0
463 -19 -462 0
463 19 462 0
-25 463 0
-79 464 0
-80 464 0
-81 464 0
-82 464 0
-460 464 0
-462 464 0
79 80 81 82 460 462 -464 0
19 -464 -465 0
-19 464 -465 0
-19 -464 465 0
19 464 465 0
-26 465 0
79 466 0
80 466 0
81 466 0
82 466 0
460 466 0
462 466 0
-467 0
-19 466 -468 0
19 -466 -468 0
468 -466 -19 0
19 466 468 0
-27 -468 0
462 -469 -470 0
469 -462 -470 0
-462 -469 470 0
462 469 470 0
-24 -470 0
-80 469 -471 0
80 -469 -471 0
471 -469 -80 0
471 469 80 0
-25 471 0
-79 472 0
-80 472 0
-81 472 0
-82 472 0
-462 472 0
79 80 81 82 462 -472 0
469 -472 -473 0
-469 472 -473 0
-469 -472 473 0
469 472 473 0
-26 473 0
79 474 0
80 474 0
81 474 0
82 474 0
462 474 0
-475 0
-469 474 -476 0
469 -474 -476 0
476 -474 -469 0
469 474 476 0
-27 -476 0
477 -20 -478 0
20 -477 -478 0
-477 -20 478 0
20 477 478 0
-24 -478 0
20 -479 -480 0
479 -20 -480 0
480 -20 -479 0
480 20 479 0
-25 480 0
-198 481 0
-199 481 0
-200 481 0
-477 481 0
-479 481 0
-482 481 0
483 0
20 -481 -484 0
-20 481 -484 0
-20 -481 484 0
20 481 484 0
-26 484 0
198 485 0
199 485 0
200 485 0
477 485 0
479 485 0
482 485 0
-486 0
-20 485 -487 0
20 -485 -487 0
487 -485 -20 0
20 485 487 0
-27 -487 0
479 -488 -489 0
488 -479 -489 0
-479 -488 489 0
479 488 489 0
-24 -489 0
488 -482 -490 0
482 -488 -490 0
490 -488 -482 0
490 488 482 0
-25 490 0
-198 491 0
-199 491 0
-200 491 0
-479 491 0
-482 491 0
198 199 200 479 482 -491 0
488 -491 -492 0
-488 491 -492 0
-488 -491 492 0
488 491 492 0
-26 492 0
198 493 0
199 493 0
200 493 0
479 493 0
482 493 0
-494 0
-488 493 -495 0
488 -493 -495 0
495 -493 -488 0
488 493 495 0
-27 -495 0
482 -496 -497 0
496 -482 -497 0
-482 -496 497 0
482 496 497 0
-24 -497 0
-199 496 -498 0
199 -496 -498 0
498 -496 -199 0
498 496 199 0
-25 498 0
-198 499 0
-199 499 0
-200 499 0
-482 499 0
198 199 200 482 -499 0
496 -499 -500 0
-496 499 -500 0
-496 -499 500 0
496 499 500 0
-26 500 0
198 501 0
199 501 0
200 501 0
482 501 0
-502 0
-496 501 -503 0
496 -501 -503 0
503 -501 -496 0
496 501 503 0
-27 -503 0
504 -21 -505 0
21 -504 -505 0
-504 -21 505 0
21 504 505 0
-24 -505 0
21 -506 -507 0
506 -21 -507 0
507 -21 -506 0
507 21 506 0
-25 507 0
-504 508 0
-506 508 0
-509 508 0
-510 508 0
504 506 509 510 -508 0
21 -508 -511 0
-21 508 -511 0
-21 -508 511 0
21 508 511 0
-26 511 0
504 512 0
506 512 0
509 512 0
510 512 0
-513 0
-21 512 -514 0
21 -512 -514 0
514 -512 -21 0
21 512 514 0
-27 -514 0
506 -515 -516 0
515 -506 -516 0
-506 -515 516 0
506 515 516 0
-24 -516 0
515 -509 -517 0
509 -515 -517 0
517 -515 -509 0
517 515 509 0
-25 517 0
-506 518 0
-509 518 0
-510 518 0
506 509 510 -518 0
515 -518 -519 0
-515 518 -519 0
-515 -518 519 0
515 518 519 0
-26 519 0
506 520 0
509 520 0
510 520 0
-506 -509 -510 -520 0
-515 520 -521 0
515 -520 -521 0
521 -520 -515 0
515 520 521 0
-27 -521 0
509 -22 -522 0
22 -509 -522 0
-509 -22 522 0
509 22 522 0
-24 -522 0
22 -510 -523 0
510 -22 -523 0
523 -22 -510 0
523 22 510 0
-25 523 0
-509 524 0
-510 524 0
509 510 -524 0
22 -524 -525 0
-22 524 -525 0
-22 -524 525 0
22 524 525 0
-26 525 0
509 526 0
510 526 0
-509 -510 -526 0
-22 526 -527 0
22 -526 -527 0
527 -526 -22 0
22 526 527 0
-27 -527 0
510 -528 -529 0
528 -510 -529 0
-510 -528 529 0
510 528 529 0
-24 -529 0
-509 528 -530 0
509 -528 -530 0
530 -528 -509 0
530 528 509 0
-25 530 0
-510 531 0
-22 531 0
510 22 -531 0
528 -531 -532 0
-528 531 -532 0
-528 -531 532 0
528 531 532 0
-26 532 0
510 533 0
22 533 0
-510 -22 -533 0
-528 533 -534 0
528 -533 -534 0
534 -533 -528 0
528 533 534 0
-27 -534 0
535 -23 -536 0
23 -535 -536 0
-535 -23 536 0
23 535 536 0
-24 -536 0
23 -537 -538 0
537 -23 -538 0
538 -23 -537 0
538 23 537 0
-25 538 0
-535 539 0
-537 539 0
-540 539 0
-541 539 0
535 537 540 541 -539 0
23 -539 -542 0
-23 539 -542 0
-23 -539 542 0
23 539 542 0
-26 542 0
535 543 0
537 543 0
540 543 0
541 543 0
-544 0
-23 543 -545 0
23 -543 -545 0
545 -543 -23 0
23 543 545 0
-27 -545 0
537 -546 -547 0
546 -537 -547 0
-537 -546 547 0
537 546 547 0
-24 -547 0
546 -540 -548 0
540 -546 -548 0
548 -546 -540 0
548 546 540 0
-25 548 0
546 -539 -549 0
-546 539 -549 0
-546 -539 549 0
546 539 549 0
-26 549 0
-546 543 -550 0
546 -543 -550 0
550 -543 -546 0
546 543 550 0
-27 -550 0
540 -551 -552 0
551 -540 -552 0
-540 -551 552 0
540 551 552 0
-24 -552 0
551 -541 -553 0
541 -551 -553 0
553 -551 -541 0
553 551 541 0
-25 553 0
551 -539 -554 0
-551 539 -554 0
-551 -539 554 0
551 539 554 0
-26 554 0
-551 543 -555 0
551 -543 -555 0
555 -543 -551 0
551 543 555 0
-27 -555 0
541 -556 -557 0
556 -541 -557 0
-541 -556 557 0
541 556 557 0
-24 -557 0
-535 556 -558 0
535 -556 -558 0
558 -556 -535 0
558 556 535 0
-25 558 0
-23 559 0
-541 559 0
23 541 -559 0
556 -559 -560 0
-556 559 -560 0
-556 -559 560 0
556 559 560 0
-26 560 0
541 561 0
23 561 0
-541 -23 -561 0
-556 561 -562 0
556 -561 -562 0
562 -561 -556 0
556 561 562 0
-27 -562 0
-28 563 -564 0
28 -563 -564 0
-28 -563 564 0
28 563 564 0
-564 0
-35 565 -566 0
35 -565 -566 0
-35 -565 566 0
35 565 566 0
-566 0
-37 567 -568 0
37 -567 -568 0
-37 -567 568 0
37 567 568 0
-568 0
-40 569 -570 0
40 -569 -570 0
-40 -569 570 0
40 569 570 0
-570 0
-57 571 -572 0
57 -571 -572 0
-57 -571 572 0
57 571 572 0
-572 0
-59 573 -574 0
59 -573 -574 0
-59 -573 574 0
59 573 574 0
-574 0
-74 575 -576 0
74 -575 -576 0
-74 -575 576 0
74 575 576 0
-576 0
-76 577 -578 0
76 -577 -578 0
-76 -577 578 0
76 577 578 0
-578 0
-79 579 -580 0
79 -579 -580 0
-79 -579 580 0
79 579 580 0
-580 0
-80 581 -582 0
80 -581 -582 0
-80 -581 582 0
80 581 582 0
-582 0
-81 583 -584 0
81 -583 -584 0
-81 -583 584 0
81 583 584 0
-584 0
-82 585 -586 0
82 -585 -586 0
-82 -585 586 0
82 585 586 0
-586 0
-122 587 -588 0
122 -587 -588 0
-122 -587 588 0
122 587 588 0
-588 0
-124 589 -590 0
124 -589 -590 0
-124 -589 590 0
124 589 590 0
-590 0
-127 591 -592 0
127 -591 -592 0
-127 -591 592 0
127 591 592 0
-592 0
-128 593 -594 0
128 -593 -594 0
-128 -593 594 0
128 593 594 0
-594 0
-129 595 -596 0
129 -595 -596 0
-129 -595 596 0
129 595 596 0
-596 0
-130 597 -598 0
130 -597 -598 0
-130 -597 598 0
130 597 598 0
-598 0
-169 599 -600 0
169 -599 -600 0
-169 -599 600 0
169 599 600 0
-600 0
-171 601 -602 0
171 -601 -602 0
-171 -601 602 0
171 601 602 0
-602 0
-174 603 -604 0
174 -603 -604 0
-174 -603 604 0
174 603 604 0
-604 0
-192 605 -606 0
192 -605 -606 0
-192 -605 606 0
192 605 606 0
-606 0
-194 607 -608 0
194 -607 -608 0
-194 -607 608 0
194 607 608 0
-608 0
-197 609 -610 0
197 -609 -610 0
-197 -609 610 0
197 609 610 0
-610 0
-198 611 -612 0
198 -611 -612 0
-198 -611 612 0
198 611 612 0
-612 0
-199 613 -614 0
199 -613 -614 0
-199 -613 614 0
199 613 614 0
-614 0
-200 615 -616 0
200 -615 -616 0
-200 -615 616 0
200 615 616 0
-616 0
-241 617 -618 0
241 -617 -618 0
-241 -617 618 0
241 617 618 0
-618 0
-243 619 -620 0
243 -619 -620 0
-243 -619 620 0
243 619 620 0
-620 0
-258 621 -622 0
258 -621 -622 0
-258 -621 622 0
258 621 622 0
-622 0
-260 623 -624 0
260 -623 -624 0
-260 -623 624 0
260 623 624 0
-624 0
-276 625 -626 0
276 -625 -626 0
-276 -625 626 0
276 625 626 0
-626 0
-278 627 -628 0
278 -627 -628 0
-278 -627 628 0
278 627 628 0
-628 0
-281 629 -630 0
281 -629 -630 0
-281 -629 630 0
281 629 630 0
-630 0
-282 631 -632 0
282 -631 -632 0
-282 -631 632 0
282 631 632 0
-632 0
-314 633 -634 0
314 -633 -634 0
-314 -633 634 0
314 633 634 0
-634 0
-316 635 -636 0
316 -635 -636 0
-316 -635 636 0
316 635 636 0
-636 0
-319 637 -638 0
319 -637 -638 0
-319 -637 638 0
319 637 638 0
-638 0
-339 639 -640 0
339 -639 -640 0
-339 -639 640 0
339 639 640 0
-640 0
-341 641 -642 0
341 -641 -642 0
-341 -641 642 0
341 641 642 0
-642 0
-356 643 -644 0
356 -643 -644 0
-356 -643 644 0
356 643 644 0
-644 0
-364 645 -646 0
364 -645 -646 0
-364 -645 646 0
364 645 646 0
-646 0
-366 647 -648 0
366 -647 -648 0
-366 -647 648 0
366 647 648 0
-648 0
-369 649 -650 0
369 -649 -650 0
-369 -649 650 0
369 649 650 0
-650 0
-370 651 -652 0
370 -651 -652 0
-370 -651 652 0
370 651 652 0
-652 0
-371 653 -654 0
371 -653 -654 0
-371 -653 654 0
371 653 654 0
-654 0
-372 655 -656 0
372 -655 -656 0
-372 -655 656 0
372 655 656 0
-656 0
-373 657 -658 0
373 -657 -658 0
-373 -657 658 0
373 657 658 0
-658 0
-423 659 -660 0
423 -659 -660 0
-423 -659 660 0
423 659 660 0
-660 0
-425 661 -662 0
425 -661 -662 0
-425 -661 662 0
425 661 662 0
-662 0
-428 663 -664 0
428 -663 -664 0
-428 -663 664 0
428 663 664 0
-664 0
-429 665 -666 0
429 -665 -666 0
-429 -665 666 0
429 665 666 0
-666 0
-460 667 -668 0
460 -667 -668 0
-460 -667 668 0
460 667 668 0
-668 0
-462 669 -670 0
462 -669 -670 0
-462 -669 670 0
462 669 670 0
-670 0
-477 671 -672 0
477 -671 -672 0
-477 -671 672 0
477 671 672 0
-672 0
-479 673 -674 0
479 -673 -674 0
-479 -673 674 0
479 673 674 0
-674 0
-482 675 -676 0
482 -675 -676 0
-482 -675 676 0
482 675 676 0
-676 0
-504 677 -678 0
504 -677 -678 0
-504 -677 678 0
504 677 678 0
-678 0
-506 679 -680 0
506 -679 -680 0
-506 -679 680 0
506 679 680 0
-680 0
-509 681 -682 0
509 -681 -682 0
-509 -681 682 0
509 681 682 0
-682 0
-510 683 -684 0
510 -683 -684 0
-510 -683 684 0
510 683 684 0
-684 0
-535 685 -686 0
535 -685 -686 0
-535 -685 686 0
535 685 686 0
-686 0
-537 687 -688 0
537 -687 -688 0
-537 -687 688 0
537 687 688 0
-688 0
-540 689 -690 0
540 -689 -690 0
-540 -689 690 0
540 689 690 0
-690 0
-541 691 -692 0
541 -691 -692 0
-541 -691 692 0
541 691 692 0
-692 0
-693 -563 0
565 -693 0
567 -693 0
-693 -569 0
-693 -571 0
573 -693 0
-693 -575 0
-693 -577 0
579 -693 0
-693 -581 0
-693 -583 0
585 -693 0
587 -693 0
-693 -589 0
-693 -591 0
-693 -593 0
-693 -595 0
597 -693 0
-693 -599 0
-693 -601 0
603 -693 0
605 -693 0
-693 -607 0
-693 -609 0
611 -693 0
-693 -613 0
615 -693 0
617 -693 0
619 -693 0
-693 -621 0
623 -693 0
-693 -625 0
-693 -627 0
-693 -629 0
631 -693 0
633 -693 0
635 -693 0
-693 -637 0
-693 -639 0
641 -693 0
643 -693 0
-693 -645 0
-693 -647 0
-693 -649 0
651 -693 0
653 -693 0
-693 -655 0
-693 -657 0
-693 -659 0
-693 -661 0
-693 -663 0
665 -693 0
667 -693 0
-693 -669 0
671 -693 0
-693 -673 0
-693 -675 0
677 -693 0
-693 -679 0
-693 -681 0
683 -693 0
685 -693 0
687 -693 0
689 -693 0
-693 -691 0
693 0
-694 0
-695 0
-696 0
-697 0
-698 0
-699 0
-700 0
-701 0
